p cnf 1001 2391
a 1 2 3 4 21 22 23 24 25 26 27 28 29 30 31 32 33 34 35 36 37 38 39 40 41 42 43 44 45 46 47 48 49 50 51 52 53 54 55 56 57 58 59 60 61 62 63 64 65 66 67 68 69 70 71 72 73 74 75 76 77 78 79 80 81 82 83 84 85 86 0
e 5 6 7 8 9 10 11 12 13 14 15 16 17 18 19 20 87 88 89 90 91 92 93 94 95 96 97 98 99 100 101 102 103 104 105 106 107 108 109 110 111 112 113 114 115 116 117 118 119 120 121 122 123 124 125 126 127 128 129 130 131 132 133 134 135 136 137 138 139 140 141 142 143 144 145 146 147 148 149 150 151 152 153 154 155 156 157 158 159 160 161 162 163 164 165 166 167 168 169 170 171 172 173 174 175 176 177 178 179 180 181 182 183 184 185 186 187 188 189 190 191 192 193 194 195 196 197 198 199 200 201 202 203 204 205 206 207 208 209 210 211 212 213 214 215 216 217 218 219 220 221 222 223 224 225 226 227 228 229 230 231 232 233 234 235 236 237 238 239 240 241 242 243 244 245 246 247 248 249 250 251 252 253 254 255 256 257 258 259 260 261 262 263 264 265 266 267 268 269 270 271 272 273 274 275 276 277 278 279 280 281 282 283 284 285 286 287 288 289 290 291 292 293 294 295 296 297 298 299 300 301 302 303 304 305 306 307 308 309 310 311 312 313 314 315 316 317 318 319 320 321 322 323 324 325 326 327 328 329 330 331 332 333 334 335 336 337 338 339 340 341 342 343 344 345 346 347 348 349 350 351 352 353 354 355 356 357 358 359 360 361 362 363 364 365 366 367 368 369 370 371 372 373 374 375 376 377 378 379 380 381 382 383 384 385 386 387 388 389 390 391 392 393 394 395 396 397 398 399 400 401 402 403 404 405 406 407 408 409 410 411 412 413 414 415 416 417 418 419 420 421 422 423 424 425 426 427 428 429 430 431 432 433 434 435 436 437 438 439 440 441 442 443 444 445 446 447 448 449 450 451 452 453 454 455 456 457 458 459 460 461 462 463 464 465 466 467 468 469 470 471 472 473 474 475 476 477 478 479 480 481 482 483 484 485 486 487 488 489 490 491 492 493 494 495 496 497 498 499 500 501 502 503 504 505 506 507 508 509 510 511 512 513 514 515 516 517 518 519 520 521 522 523 524 525 526 527 528 529 530 531 532 533 534 535 536 537 538 539 540 541 542 543 544 545 546 547 548 549 550 551 552 553 554 555 556 557 558 559 560 561 562 563 564 565 566 567 568 569 570 571 572 573 574 575 576 577 578 579 580 581 582 583 584 585 586 587 588 589 590 591 592 593 594 595 596 597 598 599 600 601 602 603 604 605 606 607 608 609 610 611 612 613 614 615 616 617 618 619 620 621 622 623 624 625 626 627 628 629 630 631 632 633 634 635 636 637 638 639 640 641 642 643 644 645 646 647 648 649 650 651 652 653 654 655 656 657 658 659 660 661 662 663 664 665 666 667 668 669 670 671 672 673 674 675 676 677 678 679 680 681 682 683 684 685 686 687 688 689 690 691 692 693 694 695 696 697 698 699 700 701 702 703 704 705 706 707 708 709 710 711 712 713 714 715 716 717 718 719 720 721 722 723 724 725 726 727 728 729 730 731 732 733 734 735 736 737 738 739 740 741 742 743 744 745 746 747 748 749 750 751 752 753 754 755 756 757 758 759 760 761 762 763 764 765 766 767 768 769 770 771 772 773 774 775 776 777 778 779 780 781 782 783 784 785 786 787 788 789 790 791 792 793 794 795 796 797 798 799 800 801 802 803 804 805 806 807 808 809 810 811 812 813 814 815 816 817 818 819 820 821 822 823 824 825 826 827 828 829 830 831 832 833 834 835 836 837 838 839 840 841 842 843 844 845 846 847 848 849 850 851 852 853 854 855 856 857 858 859 860 861 862 863 864 865 866 867 868 869 870 871 872 873 874 875 876 877 878 879 880 881 882 883 884 885 886 887 888 889 890 891 892 893 894 895 896 897 898 899 900 901 902 903 904 905 906 907 908 909 910 911 912 913 914 915 916 917 918 919 920 921 922 923 924 925 926 927 928 929 930 931 932 933 934 935 936 937 938 939 940 941 942 943 944 945 946 947 948 949 950 951 952 953 954 955 956 957 958 959 960 961 962 963 964 965 966 967 968 969 970 971 972 973 974 975 976 977 978 979 980 981 982 983 984 985 986 987 988 989 990 991 992 993 994 995 996 997 998 999 1000 1001 0
-1001 0
1001 -817 0
1001 -880 0
1001 -941 0
1001 -1000 0
3 2 1 -816 -999 1000 0
999 -969 0
999 -998 0
-997 -454 998 0
997 -972 0
997 -975 0
997 -978 0
997 -996 0
-995 -872 -802 -930 996 0
995 -994 0
995 -511 0
995 -512 0
995 -513 0
995 -514 0
-993 -988 -983 994 0
993 -989 0
993 -675 0
993 -506 0
993 -676 0
993 -508 0
993 -990 0
993 -991 0
993 -992 0
993 -59 0
993 -58 0
993 -57 0
993 -56 0
993 -55 0
993 -54 0
993 -53 0
-5 -26 992 0
-23 5 991 0
-5 -64 990 0
5 -61 989 0
988 -984 0
988 -668 0
988 -496 0
988 -669 0
988 -985 0
988 -498 0
988 -986 0
988 -987 0
988 -46 0
988 -45 0
988 -44 0
988 -43 0
988 -42 0
988 -41 0
988 -40 0
-5 -51 987 0
-5 -24 986 0
-22 5 985 0
5 -48 984 0
983 -979 0
983 -661 0
983 -486 0
983 -663 0
983 -980 0
983 -487 0
983 -981 0
983 -982 0
983 -33 0
983 -32 0
983 -31 0
983 -30 0
983 -29 0
983 -28 0
983 -27 0
-5 -25 982 0
-5 -38 981 0
-21 5 980 0
-35 5 979 0
-636 -635 -618 -800 -798 -977 -976 978 0
977 -791 0
977 -806 0
976 -796 0
976 -658 0
-577 -805 -804 -560 -515 -974 -973 975 0
974 -745 0
974 -801 0
973 -810 0
973 -658 0
-657 -656 -655 -654 -601 -971 -970 972 0
971 -741 0
971 -806 0
970 -750 0
970 -801 0
-448 -447 -446 -968 -965 -962 -959 -87 969 0
968 -437 0
968 -438 0
968 -966 0
968 -967 0
968 -384 0
968 -385 0
968 -386 0
-378 -434 967 0
-443 -397 966 0
965 -963 0
965 -964 0
965 -431 0
965 -389 0
965 -390 0
965 -433 0
965 -391 0
-439 -424 964 0
-397 -429 963 0
962 -960 0
962 -961 0
962 -388 0
962 -393 0
962 -394 0
962 -395 0
962 -396 0
-439 -402 961 0
-434 -359 960 0
959 -901 0
959 -435 0
959 -845 0
959 -958 0
-147 -146 -145 -144 -957 958 0
957 -946 0
957 -951 0
957 -956 0
54 53 56 55 59 58 57 -955 -954 -953 -168 -188 -163 -186 -952 956 0
955 26 0
955 5 0
954 23 0
954 -5 0
953 64 0
953 5 0
952 61 0
952 -5 0
46 45 43 40 44 42 41 -950 -949 -160 -948 -179 -156 -178 -947 951 0
950 51 0
950 5 0
949 24 0
949 5 0
948 22 0
948 -5 0
947 48 0
947 -5 0
28 32 31 30 29 27 33 -945 -944 -153 -943 -172 -149 -171 -942 946 0
945 25 0
945 5 0
944 38 0
944 5 0
943 21 0
943 -5 0
942 35 0
942 -5 0
4 2 1 -816 -940 941 0
940 -909 0
940 -939 0
-938 -454 939 0
938 -912 0
938 -931 0
938 -934 0
938 -937 0
-760 -759 -758 -795 -793 -936 -935 937 0
936 -810 0
936 -791 0
935 -764 0
935 -801 0
-763 -762 -757 -752 -751 -933 -932 934 0
933 -810 0
933 -769 0
932 -796 0
932 -726 0
-930 -871 -797 -929 931 0
930 -764 0
930 -658 0
929 -928 0
929 -511 0
929 -512 0
929 -513 0
929 -514 0
-927 -922 -917 928 0
927 -923 0
927 -924 0
927 -925 0
927 -926 0
927 -531 0
927 -552 0
927 -553 0
927 -535 0
927 -80 0
927 -73 0
927 -59 0
927 -58 0
927 -57 0
927 -56 0
927 -53 0
-10 -64 926 0
-10 -26 925 0
10 -61 924 0
-23 10 923 0
922 -918 0
922 -919 0
922 -920 0
922 -523 0
922 -547 0
922 -548 0
922 -527 0
922 -921 0
922 -79 0
922 -70 0
922 -46 0
922 -45 0
922 -44 0
922 -43 0
922 -40 0
-10 -51 921 0
-10 -24 920 0
10 -48 919 0
-22 10 918 0
917 -913 0
917 -516 0
917 -540 0
917 -541 0
917 -520 0
917 -914 0
917 -915 0
917 -916 0
917 -78 0
917 -67 0
917 -33 0
917 -32 0
917 -31 0
917 -30 0
917 -27 0
-21 10 916 0
-10 -25 915 0
-35 10 914 0
-10 -38 913 0
-755 -754 -753 -809 -808 -911 -910 912 0
911 -745 0
911 -796 0
910 -764 0
910 -806 0
-448 -447 -446 -908 -905 -902 -883 -87 909 0
908 -906 0
908 -907 0
908 -148 0
908 -193 0
908 -441 0
908 -442 0
908 -210 0
-378 -429 907 0
-439 -291 906 0
905 -903 0
905 -904 0
905 -426 0
905 -428 0
905 -251 0
905 -268 0
905 -269 0
-443 -424 904 0
-434 -291 903 0
902 -900 0
902 -430 0
902 -844 0
902 -901 0
-397 -291 901 0
-147 -146 -145 -144 -899 900 0
899 -888 0
899 -893 0
899 -898 0
53 56 59 58 57 73 80 -113 -309 -308 -110 -897 -896 -895 -894 898 0
897 64 0
897 10 0
896 26 0
896 10 0
895 61 0
895 -10 0
894 23 0
894 -10 0
46 45 43 40 79 70 44 -892 -103 -301 -300 -100 -891 -890 -889 893 0
892 51 0
892 10 0
891 10 0
891 24 0
890 48 0
890 -10 0
889 22 0
889 -10 0
32 31 30 27 33 67 78 -887 -886 -885 -92 -294 -293 -89 -884 888 0
887 21 0
887 -10 0
886 10 0
886 25 0
885 35 0
885 -10 0
884 38 0
884 10 0
883 -881 0
883 -882 0
883 -234 0
883 -287 0
883 -288 0
883 -289 0
883 -290 0
-443 -374 882 0
-429 -383 881 0
4 3 2 -816 -879 880 0
879 -847 0
879 -878 0
-877 -454 878 0
877 -850 0
877 -853 0
877 -873 0
877 -876 0
-735 -734 -733 -790 -789 -875 -874 876 0
875 -741 0
875 -796 0
874 -801 0
874 -769 0
-872 -871 -792 -870 873 0
872 -769 0
872 -806 0
871 -741 0
871 -810 0
870 -869 0
870 -511 0
870 -512 0
870 -513 0
870 -514 0
-868 -863 -858 869 0
868 -864 0
868 -865 0
868 -593 0
868 -478 0
868 -479 0
868 -597 0
868 -866 0
868 -867 0
868 -86 0
868 -80 0
868 -77 0
868 -73 0
868 -59 0
868 -58 0
868 -53 0
-23 20 867 0
-20 -26 866 0
-20 -64 865 0
20 -61 864 0
863 -859 0
863 -860 0
863 -861 0
863 -586 0
863 -468 0
863 -469 0
863 -590 0
863 -862 0
863 -85 0
863 -79 0
863 -76 0
863 -70 0
863 -46 0
863 -45 0
863 -40 0
-20 -51 862 0
-20 -24 861 0
20 -48 860 0
-22 20 859 0
858 -854 0
858 -855 0
858 -856 0
858 -579 0
858 -458 0
858 -581 0
858 -857 0
858 -84 0
858 -78 0
858 -75 0
858 -67 0
858 -462 0
858 -33 0
858 -32 0
858 -27 0
-21 20 857 0
-20 -38 856 0
-20 -25 855 0
-35 20 854 0
-730 -768 -766 -729 -728 -852 -851 853 0
852 -791 0
852 -726 0
851 -741 0
851 -764 0
-740 -739 -738 -737 -732 -849 -848 850 0
849 -750 0
849 -791 0
848 -658 0
848 -769 0
-448 -447 -446 -846 -826 -823 -820 -87 847 0
846 -843 0
846 -425 0
846 -844 0
846 -845 0
-439 -374 845 0
-443 -402 844 0
-147 -146 -145 -144 -842 843 0
842 -831 0
842 -836 0
842 -841 0
53 59 58 73 77 86 80 -840 -839 -229 -140 -139 -228 -838 -837 841 0
840 26 0
840 20 0
839 23 0
839 -20 0
838 64 0
838 20 0
837 61 0
837 -20 0
76 46 45 40 79 70 85 -835 -222 -130 -129 -221 -834 -833 -832 836 0
835 51 0
835 20 0
834 20 0
834 24 0
833 48 0
833 -20 0
832 22 0
832 -20 0
32 27 33 -123 67 75 78 84 -830 -215 -119 -214 -829 -828 -827 831 0
830 21 0
830 -20 0
829 38 0
829 20 0
828 20 0
828 25 0
827 35 0
827 -20 0
826 -824 0
826 -825 0
826 -422 0
826 -361 0
826 -362 0
826 -423 0
826 -363 0
-429 -402 825 0
-434 -374 824 0
823 -821 0
823 -822 0
823 -400 0
823 -401 0
823 -366 0
823 -367 0
823 -368 0
-424 -359 822 0
-397 -374 821 0
820 -818 0
820 -819 0
820 -365 0
820 -370 0
820 -371 0
820 -372 0
820 -373 0
-424 -383 819 0
-402 -291 818 0
4 3 1 -816 -815 817 0
816 -4 0
816 -3 0
816 -2 0
816 -1 0
815 -449 0
815 -814 0
-813 -454 814 0
813 -749 0
813 -771 0
813 -803 0
813 -812 0
-683 -682 -681 -744 -743 -811 -807 812 0
811 -750 0
811 -810 0
-755 -754 -753 -809 -808 810 0
809 -794 0
809 -576 0
809 -511 0
809 -512 0
809 -513 0
809 -514 0
808 -761 0
808 -482 0
808 -511 0
808 -512 0
808 -513 0
808 -514 0
807 -726 0
807 -806 0
-577 -805 -804 -560 -515 806 0
805 -537 0
805 -799 0
805 -511 0
805 -512 0
805 -513 0
805 -514 0
804 -482 0
804 -637 0
804 -511 0
804 -512 0
804 -513 0
804 -514 0
-802 -797 -792 -788 803 0
802 -726 0
802 -801 0
-636 -635 -618 -800 -798 801 0
800 -617 0
800 -799 0
800 -511 0
800 -512 0
800 -513 0
800 -514 0
-657 -656 -655 799 0
798 -578 0
798 -634 0
798 -511 0
798 -512 0
798 -513 0
798 -514 0
797 -750 0
797 -796 0
-760 -759 -758 -795 -793 796 0
795 -794 0
795 -510 0
795 -511 0
795 -512 0
795 -513 0
795 -514 0
-763 -752 -751 794 0
793 -756 0
793 -634 0
793 -511 0
793 -512 0
793 -513 0
793 -514 0
792 -745 0
792 -791 0
-735 -734 -733 -790 -789 791 0
790 -767 0
790 -617 0
790 -511 0
790 -512 0
790 -513 0
790 -514 0
789 -731 0
789 -510 0
789 -511 0
789 -512 0
789 -513 0
789 -514 0
788 -787 0
788 -511 0
788 -512 0
788 -513 0
788 -514 0
-786 -781 -776 787 0
786 -782 0
786 -783 0
786 -501 0
786 -502 0
786 -476 0
786 -477 0
786 -784 0
786 -785 0
786 -80 0
786 -73 0
786 -59 0
786 -58 0
786 -57 0
786 -56 0
786 -53 0
-23 15 785 0
-15 -26 784 0
-15 -64 783 0
15 -61 782 0
781 -777 0
781 -778 0
781 -779 0
781 -492 0
781 -493 0
781 -466 0
781 -467 0
781 -780 0
781 -79 0
781 -70 0
781 -46 0
781 -45 0
781 -44 0
781 -43 0
781 -40 0
-15 -24 780 0
-15 -51 779 0
15 -48 778 0
-22 15 777 0
776 -772 0
776 -773 0
776 -774 0
776 -775 0
776 -483 0
776 -456 0
776 -457 0
776 -78 0
776 -67 0
776 -489 0
776 -33 0
776 -32 0
776 -31 0
776 -30 0
776 -27 0
-15 -38 775 0
-15 -25 774 0
-35 15 773 0
-21 15 772 0
-725 -724 -719 -702 -701 -770 -765 771 0
770 -745 0
770 -769 0
-730 -768 -766 -729 -728 769 0
768 -767 0
768 -718 0
768 -511 0
768 -512 0
768 -513 0
768 -514 0
-740 -739 -738 767 0
766 -736 0
766 -680 0
766 -511 0
766 -512 0
766 -513 0
766 -514 0
765 -750 0
765 -764 0
-763 -762 -757 -752 -751 764 0
763 -718 0
763 -511 0
763 -512 0
763 -513 0
763 -514 0
762 -761 0
762 -680 0
762 -511 0
762 -512 0
762 -513 0
762 -514 0
-760 -759 -758 761 0
760 -617 0
760 -511 0
760 -512 0
760 -513 0
760 -514 0
759 -510 0
759 -718 0
759 -511 0
759 -512 0
759 -513 0
759 -514 0
758 -634 0
758 -537 0
758 -511 0
758 -512 0
758 -513 0
758 -514 0
757 -756 0
757 -700 0
757 -511 0
757 -512 0
757 -513 0
757 -514 0
-755 -754 -753 756 0
755 -537 0
755 -511 0
755 -512 0
755 -513 0
755 -514 0
754 -576 0
754 -718 0
754 -511 0
754 -512 0
754 -513 0
754 -514 0
753 -482 0
753 -617 0
753 -511 0
753 -512 0
753 -513 0
753 -514 0
752 -700 0
752 -537 0
752 -511 0
752 -512 0
752 -513 0
752 -514 0
751 -617 0
751 -680 0
751 -511 0
751 -512 0
751 -513 0
751 -514 0
-722 -721 -720 -748 -747 750 0
-722 -721 -720 -748 -747 -746 -727 749 0
748 -742 0
748 -559 0
748 -511 0
748 -512 0
748 -513 0
748 -514 0
747 -684 0
747 -600 0
747 -511 0
747 -512 0
747 -513 0
747 -514 0
746 -741 0
746 -745 0
-683 -682 -681 -744 -743 745 0
744 -723 0
744 -537 0
744 -511 0
744 -512 0
744 -513 0
744 -514 0
743 -742 0
743 -576 0
743 -511 0
743 -512 0
743 -513 0
743 -514 0
-725 -719 -702 742 0
-740 -739 -738 -737 -732 741 0
740 -600 0
740 -511 0
740 -512 0
740 -513 0
740 -514 0
739 -634 0
739 -653 0
739 -511 0
739 -512 0
739 -513 0
739 -514 0
738 -700 0
738 -559 0
738 -511 0
738 -512 0
738 -513 0
738 -514 0
737 -736 0
737 -653 0
737 -511 0
737 -512 0
737 -513 0
737 -514 0
-735 -734 -733 736 0
735 -634 0
735 -511 0
735 -512 0
735 -513 0
735 -514 0
734 -700 0
734 -510 0
734 -511 0
734 -512 0
734 -513 0
734 -514 0
733 -617 0
733 -600 0
733 -511 0
733 -512 0
733 -513 0
733 -514 0
732 -731 0
732 -559 0
732 -511 0
732 -512 0
732 -513 0
732 -514 0
-730 -729 -728 731 0
730 -700 0
730 -511 0
730 -512 0
730 -513 0
730 -514 0
729 -634 0
729 -680 0
729 -511 0
729 -512 0
729 -513 0
729 -514 0
728 -600 0
728 -718 0
728 -511 0
728 -512 0
728 -513 0
728 -514 0
727 -658 0
727 -726 0
-725 -724 -719 -702 -701 726 0
725 -680 0
725 -511 0
725 -512 0
725 -513 0
725 -514 0
724 -723 0
724 -718 0
724 -511 0
724 -512 0
724 -513 0
724 -514 0
-722 -721 -720 723 0
722 -653 0
722 -511 0
722 -512 0
722 -513 0
722 -514 0
721 -559 0
721 -680 0
721 -511 0
721 -512 0
721 -513 0
721 -514 0
720 -482 0
720 -600 0
720 -511 0
720 -512 0
720 -513 0
720 -514 0
719 -653 0
719 -718 0
719 -511 0
719 -512 0
719 -513 0
719 -514 0
-717 -712 -707 718 0
717 -713 0
717 -675 0
717 -531 0
717 -714 0
717 -676 0
717 -715 0
717 -535 0
717 -716 0
717 -74 0
717 -73 0
717 -72 0
717 -59 0
717 -57 0
717 -56 0
717 -54 0
-23 6 716 0
-6 -26 715 0
-9 -64 714 0
9 -61 713 0
712 -668 0
712 -523 0
712 -669 0
712 -708 0
712 -527 0
712 -709 0
712 -710 0
712 -711 0
712 -71 0
712 -70 0
712 -69 0
712 -46 0
712 -44 0
712 -43 0
712 -41 0
-6 -24 711 0
-22 6 710 0
-9 -51 709 0
9 -48 708 0
707 -661 0
707 -516 0
707 -520 0
707 -663 0
707 -703 0
707 -704 0
707 -705 0
707 -706 0
707 -68 0
707 -67 0
707 -66 0
707 -33 0
707 -31 0
707 -30 0
707 -28 0
-6 -25 706 0
-21 6 705 0
-9 -38 704 0
-35 9 703 0
702 -700 0
702 -482 0
702 -511 0
702 -512 0
702 -513 0
702 -514 0
701 -684 0
701 -700 0
701 -511 0
701 -512 0
701 -513 0
701 -514 0
-699 -694 -689 700 0
699 -675 0
699 -695 0
699 -696 0
699 -593 0
699 -676 0
699 -597 0
699 -697 0
699 -698 0
699 -77 0
699 -73 0
699 -72 0
699 -59 0
699 -58 0
699 -56 0
699 -54 0
-8 -26 698 0
-23 8 697 0
-17 -64 696 0
17 -61 695 0
694 -668 0
694 -690 0
694 -691 0
694 -586 0
694 -669 0
694 -590 0
694 -692 0
694 -693 0
694 -76 0
694 -70 0
694 -69 0
694 -46 0
694 -45 0
694 -43 0
694 -41 0
-22 8 693 0
-8 -24 692 0
-17 -51 691 0
17 -48 690 0
689 -661 0
689 -685 0
689 -686 0
689 -579 0
689 -581 0
689 -663 0
689 -687 0
689 -688 0
689 -75 0
689 -67 0
689 -66 0
689 -33 0
689 -32 0
689 -30 0
689 -28 0
-8 -25 688 0
-21 8 687 0
-17 -38 686 0
-35 17 685 0
-683 -682 -681 684 0
683 -482 0
683 -511 0
683 -512 0
683 -513 0
683 -514 0
682 -537 0
682 -653 0
682 -511 0
682 -512 0
682 -513 0
682 -514 0
681 -576 0
681 -680 0
681 -511 0
681 -512 0
681 -513 0
681 -514 0
-679 -672 -665 680 0
679 -673 0
679 -674 0
679 -675 0
679 -476 0
679 -477 0
679 -676 0
679 -677 0
679 -678 0
679 -73 0
679 -72 0
679 -59 0
679 -58 0
679 -57 0
679 -56 0
679 -54 0
-23 7 678 0
-7 -26 677 0
-5 -63 676 0
5 -60 675 0
13 -61 674 0
-13 -64 673 0
672 -666 0
672 -667 0
672 -668 0
672 -466 0
672 -467 0
672 -669 0
672 -670 0
672 -671 0
672 -70 0
672 -69 0
672 -46 0
672 -45 0
672 -44 0
672 -43 0
672 -41 0
-22 7 671 0
-7 -24 670 0
-5 -50 669 0
5 -47 668 0
-13 -51 667 0
13 -48 666 0
665 -659 0
665 -660 0
665 -661 0
665 -456 0
665 -457 0
665 -662 0
665 -663 0
665 -664 0
665 -67 0
665 -66 0
665 -33 0
665 -32 0
665 -31 0
665 -30 0
665 -28 0
-7 -25 664 0
-34 5 663 0
-21 7 662 0
-5 -37 661 0
-13 -38 660 0
-35 13 659 0
-657 -656 -655 -654 -601 658 0
657 -510 0
657 -653 0
657 -511 0
657 -512 0
657 -513 0
657 -514 0
656 -559 0
656 -511 0
656 -512 0
656 -513 0
656 -514 0
655 -600 0
655 -576 0
655 -511 0
655 -512 0
655 -513 0
655 -514 0
654 -637 0
654 -653 0
654 -511 0
654 -512 0
654 -513 0
654 -514 0
-652 -647 -642 653 0
652 -648 0
652 -552 0
652 -553 0
652 -476 0
652 -477 0
652 -649 0
652 -650 0
652 -651 0
652 -80 0
652 -74 0
652 -73 0
652 -72 0
652 -59 0
652 -57 0
652 -56 0
-23 11 651 0
-11 -26 650 0
14 -61 649 0
-14 -64 648 0
647 -547 0
647 -548 0
647 -466 0
647 -467 0
647 -643 0
647 -644 0
647 -645 0
647 -646 0
647 -79 0
647 -71 0
647 -70 0
647 -69 0
647 -46 0
647 -44 0
647 -43 0
-11 -24 646 0
-14 -51 645 0
14 -48 644 0
-22 11 643 0
642 -540 0
642 -541 0
642 -456 0
642 -457 0
642 -638 0
642 -639 0
642 -640 0
642 -641 0
642 -78 0
642 -68 0
642 -67 0
642 -66 0
642 -33 0
642 -31 0
642 -30 0
-11 -25 641 0
-14 -38 640 0
-35 14 639 0
-21 11 638 0
-636 -635 -618 637 0
636 -510 0
636 -511 0
636 -512 0
636 -513 0
636 -514 0
635 -634 0
635 -576 0
635 -511 0
635 -512 0
635 -513 0
635 -514 0
-633 -628 -623 634 0
633 -629 0
633 -593 0
633 -501 0
633 -502 0
633 -630 0
633 -631 0
633 -597 0
633 -632 0
633 -80 0
633 -77 0
633 -74 0
633 -73 0
633 -72 0
633 -59 0
633 -56 0
-16 -26 632 0
-19 -64 631 0
-23 16 630 0
19 -61 629 0
628 -624 0
628 -625 0
628 -586 0
628 -492 0
628 -493 0
628 -626 0
628 -590 0
628 -627 0
628 -79 0
628 -76 0
628 -71 0
628 -70 0
628 -69 0
628 -46 0
628 -43 0
-19 -51 627 0
-16 -24 626 0
19 -48 625 0
-22 16 624 0
623 -619 0
623 -620 0
623 -621 0
623 -579 0
623 -483 0
623 -581 0
623 -622 0
623 -78 0
623 -75 0
623 -68 0
623 -67 0
623 -66 0
623 -489 0
623 -33 0
623 -30 0
-19 -38 622 0
-16 -25 621 0
-35 19 620 0
-21 16 619 0
618 -617 0
618 -559 0
618 -511 0
618 -512 0
618 -513 0
618 -514 0
-616 -611 -606 617 0
616 -612 0
616 -613 0
616 -614 0
616 -615 0
616 -531 0
616 -501 0
616 -502 0
616 -535 0
616 -83 0
616 -80 0
616 -73 0
616 -72 0
616 -58 0
616 -57 0
616 -56 0
-11 -64 615 0
-14 -26 614 0
11 -61 613 0
-23 14 612 0
611 -607 0
611 -608 0
611 -609 0
611 -523 0
611 -492 0
611 -493 0
611 -527 0
611 -610 0
611 -82 0
611 -79 0
611 -70 0
611 -69 0
611 -45 0
611 -44 0
611 -43 0
-11 -51 610 0
-14 -24 609 0
11 -48 608 0
-22 14 607 0
606 -602 0
606 -516 0
606 -483 0
606 -603 0
606 -520 0
606 -604 0
606 -605 0
606 -81 0
606 -78 0
606 -67 0
606 -66 0
606 -489 0
606 -32 0
606 -31 0
606 -30 0
-14 -25 605 0
-35 11 604 0
-11 -38 603 0
-21 14 602 0
601 -578 0
601 -600 0
601 -511 0
601 -512 0
601 -513 0
601 -514 0
-599 -592 -585 600 0
599 -593 0
599 -594 0
599 -595 0
599 -596 0
599 -552 0
599 -553 0
599 -597 0
599 -598 0
599 -80 0
599 -77 0
599 -73 0
599 -72 0
599 -59 0
599 -58 0
599 -56 0
-12 -26 598 0
-20 -65 597 0
-18 -64 596 0
18 -61 595 0
-23 12 594 0
20 -62 593 0
592 -586 0
592 -587 0
592 -588 0
592 -589 0
592 -547 0
592 -548 0
592 -590 0
592 -591 0
592 -79 0
592 -76 0
592 -70 0
592 -69 0
592 -46 0
592 -45 0
592 -43 0
-12 -24 591 0
-20 -52 590 0
-18 -51 589 0
18 -48 588 0
-22 12 587 0
20 -49 586 0
585 -579 0
585 -580 0
585 -540 0
585 -541 0
585 -581 0
585 -582 0
585 -583 0
585 -584 0
585 -78 0
585 -75 0
585 -67 0
585 -66 0
585 -33 0
585 -32 0
585 -30 0
-12 -25 584 0
-21 12 583 0
-18 -38 582 0
-20 -39 581 0
-35 18 580 0
-36 20 579 0
-577 -560 -515 578 0
577 -576 0
577 -511 0
577 -512 0
577 -513 0
577 -514 0
-575 -570 -565 576 0
575 -506 0
575 -478 0
575 -479 0
575 -571 0
575 -572 0
575 -573 0
575 -574 0
575 -508 0
575 -86 0
575 -80 0
575 -72 0
575 -59 0
575 -58 0
575 -57 0
575 -55 0
-8 -64 574 0
-17 -26 573 0
8 -61 572 0
-23 17 571 0
570 -496 0
570 -468 0
570 -469 0
570 -566 0
570 -567 0
570 -568 0
570 -498 0
570 -569 0
570 -85 0
570 -79 0
570 -69 0
570 -46 0
570 -45 0
570 -44 0
570 -42 0
-8 -51 569 0
-17 -24 568 0
8 -48 567 0
-22 17 566 0
565 -486 0
565 -458 0
565 -561 0
565 -562 0
565 -563 0
565 -487 0
565 -564 0
565 -84 0
565 -78 0
565 -66 0
565 -462 0
565 -33 0
565 -32 0
565 -31 0
565 -29 0
-17 -25 564 0
-8 -38 563 0
-35 8 562 0
-21 17 561 0
560 -537 0
560 -559 0
560 -511 0
560 -512 0
560 -513 0
560 -514 0
-558 -551 -544 559 0
558 -552 0
558 -553 0
558 -506 0
558 -508 0
558 -554 0
558 -555 0
558 -556 0
558 -557 0
558 -83 0
558 -80 0
558 -72 0
558 -58 0
558 -57 0
558 -56 0
558 -55 0
-23 9 557 0
-9 -26 556 0
-6 -64 555 0
6 -61 554 0
-10 -63 553 0
10 -60 552 0
551 -545 0
551 -546 0
551 -547 0
551 -548 0
551 -496 0
551 -498 0
551 -549 0
551 -550 0
551 -82 0
551 -79 0
551 -69 0
551 -45 0
551 -44 0
551 -43 0
551 -42 0
-6 -51 550 0
6 -48 549 0
-10 -50 548 0
10 -47 547 0
-9 -24 546 0
-22 9 545 0
544 -538 0
544 -539 0
544 -540 0
544 -541 0
544 -486 0
544 -487 0
544 -542 0
544 -543 0
544 -81 0
544 -78 0
544 -66 0
544 -32 0
544 -31 0
544 -30 0
544 -29 0
-6 -38 543 0
-35 6 542 0
-10 -37 541 0
-34 10 540 0
-9 -25 539 0
-21 9 538 0
-536 -529 -522 537 0
536 -530 0
536 -531 0
536 -478 0
536 -479 0
536 -532 0
536 -533 0
536 -534 0
536 -535 0
536 -86 0
536 -80 0
536 -73 0
536 -72 0
536 -59 0
536 -58 0
536 -57 0
-10 -65 535 0
-23 18 534 0
-18 -26 533 0
12 -61 532 0
10 -62 531 0
-12 -64 530 0
529 -523 0
529 -524 0
529 -525 0
529 -526 0
529 -468 0
529 -469 0
529 -527 0
529 -528 0
529 -85 0
529 -79 0
529 -70 0
529 -69 0
529 -46 0
529 -45 0
529 -44 0
-12 -51 528 0
-10 -52 527 0
-18 -24 526 0
12 -48 525 0
-22 18 524 0
10 -49 523 0
522 -516 0
522 -517 0
522 -518 0
522 -519 0
522 -458 0
522 -520 0
522 -521 0
522 -84 0
522 -78 0
522 -67 0
522 -66 0
522 -462 0
522 -33 0
522 -32 0
522 -31 0
-35 12 521 0
-10 -39 520 0
-12 -38 519 0
-18 -25 518 0
-21 18 517 0
-36 10 516 0
515 -482 0
515 -510 0
515 -511 0
515 -512 0
515 -513 0
515 -514 0
-25 24 514 0
-23 22 513 0
-22 21 512 0
-24 26 511 0
-509 -500 -491 510 0
509 -501 0
509 -502 0
509 -503 0
509 -504 0
509 -505 0
509 -506 0
509 -507 0
509 -508 0
509 -80 0
509 -72 0
509 -59 0
509 -58 0
509 -57 0
509 -56 0
509 -55 0
-5 -65 508 0
-7 -64 507 0
5 -62 506 0
-13 -26 505 0
7 -61 504 0
-23 13 503 0
-15 -63 502 0
15 -60 501 0
500 -492 0
500 -493 0
500 -494 0
500 -495 0
500 -496 0
500 -497 0
500 -498 0
500 -499 0
500 -79 0
500 -69 0
500 -46 0
500 -45 0
500 -44 0
500 -43 0
500 -42 0
-7 -51 499 0
-5 -52 498 0
-13 -24 497 0
5 -49 496 0
7 -48 495 0
-22 13 494 0
-15 -50 493 0
15 -47 492 0
491 -483 0
491 -484 0
491 -485 0
491 -486 0
491 -487 0
491 -488 0
491 -78 0
491 -66 0
491 -489 0
491 -490 0
491 -33 0
491 -32 0
491 -31 0
491 -30 0
491 -29 0
-13 -25 490 0
-15 -37 489 0
-7 -38 488 0
-5 -39 487 0
-36 5 486 0
-35 7 485 0
-21 13 484 0
-34 15 483 0
-481 -472 -463 482 0
481 -473 0
481 -474 0
481 -475 0
481 -476 0
481 -477 0
481 -478 0
481 -479 0
481 -480 0
481 -86 0
481 -83 0
481 -80 0
481 -73 0
481 -72 0
481 -58 0
481 -57 0
-23 19 480 0
-20 -63 479 0
20 -60 478 0
-15 -65 477 0
15 -62 476 0
-16 -64 475 0
-19 -26 474 0
16 -61 473 0
472 -464 0
472 -465 0
472 -466 0
472 -467 0
472 -468 0
472 -469 0
472 -470 0
472 -471 0
472 -85 0
472 -82 0
472 -79 0
472 -70 0
472 -69 0
472 -45 0
472 -44 0
-16 -51 471 0
-22 19 470 0
-20 -50 469 0
20 -47 468 0
-15 -52 467 0
15 -49 466 0
-19 -24 465 0
16 -48 464 0
463 -455 0
463 -456 0
463 -457 0
463 -458 0
463 -459 0
463 -460 0
463 -461 0
463 -84 0
463 -81 0
463 -78 0
463 -67 0
463 -66 0
463 -462 0
463 -32 0
463 -31 0
-20 -37 462 0
-21 19 461 0
-16 -38 460 0
-35 16 459 0
-34 20 458 0
-15 -39 457 0
-36 15 456 0
-19 -25 455 0
454 -450 0
454 -451 0
454 -452 0
454 -453 0
7 5 6 8 453 0
9 12 11 10 452 0
20 19 18 17 451 0
13 16 15 14 450 0
-448 -447 -446 -445 -436 -404 -382 -87 449 0
448 -8 0
448 -7 0
448 -6 0
448 -5 0
447 -12 0
447 -11 0
447 -10 0
447 -9 0
446 -20 0
446 -19 0
446 -18 0
446 -17 0
445 -440 0
445 -444 0
445 -292 0
445 -315 0
445 -375 0
445 -377 0
445 -316 0
-443 -359 444 0
443 -148 0
443 -193 0
443 -441 0
443 -442 0
443 -210 0
-147 -146 -145 -144 -170 -427 442 0
-147 -146 -145 -144 -143 -270 441 0
-439 -383 440 0
439 -437 0
439 -438 0
439 -384 0
439 -385 0
439 -386 0
-147 -146 -145 -144 -209 -432 438 0
-147 -146 -145 -144 -143 -392 437 0
436 -421 0
436 -425 0
436 -430 0
436 -435 0
-434 -383 435 0
434 -431 0
434 -389 0
434 -390 0
434 -433 0
434 -391 0
-147 -146 -145 -144 -432 -115 433 0
432 -394 0
432 -395 0
432 -396 0
-147 -146 -145 -144 -250 -387 431 0
-429 -359 430 0
429 -426 0
429 -428 0
429 -251 0
429 -268 0
429 -269 0
-147 -146 -145 -144 -267 -427 428 0
427 -288 0
427 -289 0
427 -290 0
-147 -146 -145 -144 -250 -211 426 0
-378 -424 425 0
424 -422 0
424 -361 0
424 -362 0
424 -423 0
424 -363 0
-147 -146 -145 -144 -115 -369 423 0
-147 -146 -145 -144 -267 -399 422 0
-147 -146 -145 -144 -420 421 0
420 -409 0
420 -414 0
420 -419 0
53 56 59 58 57 73 80 -418 -417 -138 -137 -112 -111 -416 -415 419 0
418 26 0
418 15 0
417 23 0
417 -15 0
416 64 0
416 15 0
415 61 0
415 -15 0
46 45 43 40 79 70 44 -413 -128 -127 -102 -101 -412 -411 -410 414 0
413 15 0
413 24 0
412 51 0
412 15 0
411 48 0
411 -15 0
410 22 0
410 -15 0
32 31 30 27 33 -95 67 78 -118 -117 -90 -408 -407 -406 -405 409 0
408 38 0
408 15 0
407 15 0
407 25 0
406 35 0
406 -15 0
405 21 0
405 -15 0
404 -398 0
404 -403 0
404 -334 0
404 -355 0
404 -356 0
404 -357 0
404 -358 0
-378 -402 403 0
402 -400 0
402 -401 0
402 -366 0
402 -367 0
402 -368 0
-147 -146 -145 -144 -314 -364 401 0
-147 -146 -145 -144 -354 -399 400 0
399 -371 0
399 -372 0
399 -373 0
-397 -383 398 0
397 -388 0
397 -393 0
397 -394 0
397 -395 0
397 -396 0
-147 -146 -145 -144 -354 396 0
-147 -146 -145 -144 -314 -267 395 0
-147 -146 -145 -144 -333 -170 394 0
-147 -146 -145 -144 -314 -392 393 0
392 -389 0
392 -390 0
392 -391 0
-147 -146 -145 -144 -267 391 0
-147 -146 -145 -144 -170 -250 390 0
-147 -146 -145 -144 -354 -115 389 0
-147 -146 -145 -144 -333 -387 388 0
387 -384 0
387 -385 0
387 -386 0
-147 -146 -145 -144 -170 386 0
-147 -146 -145 -144 -354 -209 385 0
-147 -146 -145 -144 -143 -267 384 0
383 -380 0
383 -381 0
383 -335 0
383 -336 0
383 -337 0
382 -360 0
382 -379 0
382 -380 0
382 -381 0
382 -335 0
382 -336 0
382 -337 0
-147 -146 -145 -144 -192 -376 381 0
-147 -146 -145 -144 -233 -317 380 0
-378 -374 379 0
378 -292 0
378 -315 0
378 -375 0
378 -377 0
378 -316 0
-147 -146 -145 -144 -376 -209 377 0
376 -356 0
376 -357 0
376 -358 0
-147 -146 -145 -144 -338 -170 375 0
374 -365 0
374 -370 0
374 -371 0
374 -372 0
374 -373 0
-147 -146 -145 -144 -233 373 0
-147 -146 -145 -144 -286 -250 372 0
-147 -146 -145 -144 -192 -333 371 0
-147 -146 -145 -144 -192 -369 370 0
369 -366 0
369 -367 0
369 -368 0
-147 -146 -145 -144 -333 368 0
-147 -146 -145 -144 -314 -250 367 0
-147 -146 -145 -144 -354 -233 366 0
-147 -146 -145 -144 -286 -364 365 0
364 -361 0
364 -362 0
364 -363 0
-147 -146 -145 -144 -250 363 0
-147 -146 -145 -144 -233 -267 362 0
-147 -146 -145 -144 -333 -115 361 0
-359 -291 360 0
359 -334 0
359 -355 0
359 -356 0
359 -357 0
359 -358 0
-147 -146 -145 -144 -314 358 0
-147 -146 -145 -144 -286 -354 357 0
-147 -146 -145 -144 -143 -333 356 0
-147 -146 -145 -144 -354 -338 355 0
354 -343 0
354 -348 0
354 -353 0
56 55 58 57 72 83 80 -352 -351 -350 -349 -168 -163 -309 -308 353 0
352 26 0
352 9 0
351 23 0
351 -9 0
350 64 0
350 6 0
349 61 0
349 -6 0
69 45 43 79 82 44 42 -347 -346 -160 -156 -301 -300 -345 -344 348 0
347 51 0
347 6 0
346 48 0
346 -6 0
345 24 0
345 9 0
344 22 0
344 -9 0
32 31 30 29 81 66 78 -342 -341 -153 -149 -294 -293 -340 -339 343 0
342 38 0
342 6 0
341 35 0
341 -6 0
340 25 0
340 9 0
339 21 0
339 -9 0
338 -335 0
338 -336 0
338 -337 0
-147 -146 -145 -144 -286 337 0
-147 -146 -145 -144 -192 -314 336 0
-147 -146 -145 -144 -143 -233 335 0
-147 -146 -145 -144 -333 -317 334 0
333 -322 0
333 -327 0
333 -332 0
56 59 58 73 72 77 80 -331 -229 -309 -308 -330 -329 -328 -228 332 0
331 26 0
331 12 0
330 64 0
330 18 0
329 61 0
329 -18 0
328 23 0
328 -12 0
76 69 46 45 43 79 70 -326 -222 -301 -300 -325 -324 -323 -221 327 0
326 12 0
326 24 0
325 51 0
325 18 0
324 48 0
324 -18 0
323 22 0
323 -12 0
32 30 33 67 66 75 78 -321 -320 -319 -215 -294 -293 -318 -214 322 0
321 12 0
321 25 0
320 21 0
320 -12 0
319 38 0
319 18 0
318 35 0
318 -18 0
317 -292 0
317 -315 0
317 -316 0
-147 -146 -145 -144 -143 316 0
-147 -146 -145 -144 -314 -209 315 0
314 -299 0
314 -306 0
314 -313 0
56 59 57 74 73 72 80 -312 -311 -310 -138 -137 -309 -308 -307 313 0
312 23 0
312 -11 0
311 26 0
311 11 0
310 61 0
310 -14 0
309 63 0
309 10 0
308 60 0
308 -10 0
307 64 0
307 14 0
69 46 43 79 71 70 44 -305 -304 -303 -302 -128 -127 -301 -300 306 0
305 11 0
305 24 0
304 51 0
304 14 0
303 48 0
303 -14 0
302 22 0
302 -11 0
301 50 0
301 10 0
300 47 0
300 -10 0
31 30 33 68 67 66 78 -298 -297 -296 -295 -118 -117 -294 -293 299 0
298 11 0
298 25 0
297 38 0
297 14 0
296 35 0
296 -14 0
295 21 0
295 -11 0
294 37 0
294 10 0
293 34 0
293 -10 0
-147 -146 -145 -144 -286 -170 292 0
291 -234 0
291 -287 0
291 -288 0
291 -289 0
291 -290 0
-147 -146 -145 -144 -192 290 0
-147 -146 -145 -144 -209 -233 289 0
-147 -146 -145 -144 -286 -115 288 0
-147 -146 -145 -144 -286 -270 287 0
286 -275 0
286 -280 0
286 -285 0
54 56 59 58 57 -284 73 72 -283 -188 -138 -137 -186 -282 -281 285 0
284 23 0
284 -7 0
283 26 0
283 7 0
282 61 0
282 -13 0
281 64 0
281 13 0
69 46 45 43 70 44 41 -279 -278 -179 -128 -127 -178 -277 -276 280 0
279 22 0
279 -7 0
278 24 0
278 7 0
277 51 0
277 13 0
276 48 0
276 -13 0
28 32 31 30 33 67 66 -274 -172 -273 -118 -117 -171 -272 -271 275 0
274 25 0
274 7 0
273 21 0
273 -7 0
272 38 0
272 13 0
271 35 0
271 -13 0
270 -251 0
270 -268 0
270 -269 0
-147 -146 -145 -144 -115 269 0
-147 -146 -145 -144 -192 -267 268 0
267 -256 0
267 -261 0
267 -266 0
56 55 59 58 57 72 80 -168 -265 -163 -264 -263 -262 -112 -111 266 0
265 64 0
265 7 0
264 26 0
264 13 0
263 61 0
263 -7 0
262 23 0
262 -13 0
69 -260 46 45 43 79 44 42 -160 -259 -156 -258 -257 -102 -101 261 0
260 51 0
260 7 0
259 24 0
259 13 0
258 48 0
258 -7 0
257 22 0
257 -13 0
-255 32 31 30 29 33 -95 66 -254 78 -153 -149 -253 -252 -90 256 0
255 25 0
255 13 0
254 38 0
254 7 0
253 35 0
253 -7 0
252 21 0
252 -13 0
-147 -146 -145 -144 -209 -250 251 0
250 -239 0
250 -244 0
250 -249 0
56 59 74 73 72 77 80 -248 -229 -247 -246 -112 -111 -228 -245 249 0
248 26 0
248 16 0
247 64 0
247 19 0
246 23 0
246 -16 0
245 61 0
245 -19 0
76 69 46 43 79 71 70 -243 -222 -242 -102 -101 -221 -241 -240 244 0
243 51 0
243 19 0
242 16 0
242 24 0
241 48 0
241 -19 0
240 22 0
240 -16 0
30 33 -95 68 67 66 75 78 -238 -215 -90 -214 -237 -236 -235 239 0
238 38 0
238 19 0
237 16 0
237 25 0
236 35 0
236 -19 0
235 21 0
235 -16 0
-147 -146 -145 -144 -233 -211 234 0
233 -218 0
233 -225 0
233 -232 0
54 56 59 58 73 72 77 -231 -230 -229 -188 -228 -227 -226 -186 232 0
231 26 0
231 8 0
230 23 0
230 -8 0
229 65 0
229 20 0
228 62 0
228 -20 0
227 64 0
227 17 0
226 61 0
226 -17 0
76 69 46 45 43 70 41 -224 -223 -222 -179 -221 -220 -219 -178 225 0
224 22 0
224 -8 0
223 8 0
223 24 0
222 52 0
222 20 0
221 49 0
221 -20 0
220 51 0
220 17 0
219 48 0
219 -17 0
28 32 30 33 67 66 75 -217 -216 -172 -215 -214 -213 -212 -171 218 0
217 8 0
217 25 0
216 21 0
216 -8 0
215 39 0
215 20 0
214 36 0
214 -20 0
213 38 0
213 17 0
212 35 0
212 -17 0
211 -148 0
211 -193 0
211 -210 0
-147 -146 -145 -144 -209 210 0
209 -198 0
209 -203 0
209 -208 0
59 58 57 73 72 86 80 -113 -207 -206 -205 -140 -139 -110 -204 208 0
207 26 0
207 18 0
206 23 0
206 -18 0
205 61 0
205 -12 0
204 64 0
204 12 0
69 46 45 79 70 85 44 -202 -103 -130 -129 -201 -200 -199 -100 203 0
202 51 0
202 12 0
201 18 0
201 24 0
200 48 0
200 -12 0
199 22 0
199 -18 0
32 31 33 -123 67 66 78 84 -197 -92 -119 -196 -195 -194 -89 198 0
197 35 0
197 -12 0
196 38 0
196 12 0
195 18 0
195 25 0
194 21 0
194 -18 0
-147 -146 -145 -144 -192 -170 193 0
192 -177 0
192 -184 0
192 -191 0
54 56 59 57 74 73 72 -190 -113 -189 -188 -187 -110 -186 -185 191 0
190 23 0
190 -6 0
189 26 0
189 6 0
188 63 0
188 5 0
187 64 0
187 9 0
186 60 0
186 -5 0
185 61 0
185 -9 0
69 46 43 71 70 44 41 -183 -182 -181 -103 -180 -179 -100 -178 184 0
183 24 0
183 6 0
182 22 0
182 -6 0
181 51 0
181 9 0
180 48 0
180 -9 0
179 50 0
179 5 0
178 47 0
178 -5 0
28 31 30 33 68 67 66 -176 -175 -174 -173 -172 -92 -89 -171 177 0
176 6 0
176 25 0
175 21 0
175 -6 0
174 38 0
174 9 0
173 35 0
173 -9 0
172 34 0
172 -5 0
171 37 0
171 5 0
170 -155 0
170 -162 0
170 -169 0
55 59 58 57 72 86 80 -168 -167 -166 -165 -164 -140 -139 -163 169 0
168 65 0
168 5 0
167 64 0
167 8 0
166 26 0
166 17 0
165 61 0
165 -8 0
164 23 0
164 -17 0
163 62 0
163 -5 0
69 46 45 79 85 44 42 -161 -160 -159 -158 -157 -130 -129 -156 162 0
161 51 0
161 8 0
160 52 0
160 5 0
159 17 0
159 24 0
158 48 0
158 -8 0
157 22 0
157 -17 0
156 49 0
156 -5 0
32 31 29 33 -123 66 78 84 -154 -153 -152 -151 -150 -119 -149 155 0
154 17 0
154 25 0
153 39 0
153 5 0
152 38 0
152 8 0
151 35 0
151 -8 0
150 21 0
150 -17 0
149 36 0
149 -5 0
-147 -146 -145 -144 -143 -115 148 0
147 25 0
147 -24 0
146 23 0
146 -22 0
145 22 0
145 -21 0
144 24 0
144 -26 0
143 -124 0
143 -133 0
143 -142 0
58 57 73 72 86 83 80 -141 -140 -139 -138 -137 -136 -135 -134 142 0
141 23 0
141 -19 0
140 63 0
140 20 0
139 60 0
139 -20 0
138 65 0
138 15 0
137 62 0
137 -15 0
136 64 0
136 16 0
135 26 0
135 19 0
134 61 0
134 -16 0
69 45 79 70 85 82 44 -132 -131 -130 -129 -128 -127 -126 -125 133 0
132 51 0
132 16 0
131 22 0
131 -19 0
130 50 0
130 20 0
129 47 0
129 -20 0
128 52 0
128 15 0
127 49 0
127 -15 0
126 19 0
126 24 0
125 48 0
125 -16 0
32 31 -123 81 67 66 78 84 -122 -121 -120 -119 -118 -117 -116 124 0
123 37 0
123 20 0
122 21 0
122 -19 0
121 38 0
121 16 0
120 35 0
120 -16 0
119 34 0
119 -20 0
118 39 0
118 15 0
117 36 0
117 -15 0
116 19 0
116 25 0
115 -96 0
115 -105 0
115 -114 0
56 58 57 73 72 83 80 -113 -112 -111 -110 -109 -108 -107 -106 114 0
113 65 0
113 10 0
112 63 0
112 15 0
111 60 0
111 -15 0
110 62 0
110 -10 0
109 64 0
109 11 0
108 26 0
108 14 0
107 61 0
107 -11 0
106 23 0
106 -14 0
69 45 43 79 70 82 44 -104 -103 -102 -101 -100 -99 -98 -97 105 0
104 51 0
104 11 0
103 52 0
103 10 0
102 50 0
102 15 0
101 47 0
101 -15 0
100 49 0
100 -10 0
99 14 0
99 24 0
98 48 0
98 -11 0
97 22 0
97 -14 0
32 31 30 -95 81 67 66 78 -94 -93 -92 -91 -90 -89 -88 96 0
95 37 0
95 15 0
94 14 0
94 25 0
93 35 0
93 -11 0
92 39 0
92 10 0
91 38 0
91 11 0
90 34 0
90 -15 0
89 36 0
89 -10 0
88 21 0
88 -14 0
87 -16 0
87 -15 0
87 -14 0
87 -13 0
